c File: instances/28_0.25_1.col
c
c Description: Random graph of size 28 vertices and P(0.25) of edges between any two vertices.
p col 28 378
e 1 3
e 1 5
e 1 10
e 1 11
e 1 12
e 1 15
e 1 21
e 1 23
e 1 24
e 1 25
e 2 6
e 2 7
e 2 9
e 2 18
e 2 24
e 2 25
e 3 5
e 3 18
e 3 19
e 3 24
e 4 7
e 4 8
e 4 10
e 4 14
e 4 15
e 4 17
e 4 25
e 4 27
e 5 9
e 5 10
e 5 15
e 5 17
e 5 19
e 5 22
e 5 24
e 5 26
e 5 27
e 6 12
e 6 13
e 6 14
e 6 19
e 7 8
e 7 12
e 7 13
e 7 23
e 7 28
e 8 19
e 8 27
e 9 13
e 9 14
e 9 15
e 9 18
e 9 20
e 9 21
e 9 23
e 9 24
e 10 14
e 10 21
e 10 23
e 10 25
e 10 26
e 11 12
e 11 16
e 11 17
e 11 24
e 11 26
e 11 27
e 11 28
e 12 13
e 12 16
e 12 22
e 12 28
e 13 17
e 14 24
e 14 27
e 14 28
e 15 27
e 16 17
e 16 21
e 16 22
e 16 26
e 16 27
e 17 26
e 17 27
e 18 20
e 19 20
e 19 22
e 20 25
e 20 26
e 23 28
e 25 27
e 25 28
e 26 27